
Gurobi 11.0.2 (win64) logging started Mon Aug 19 09:17:58 2024

Set parameter LogFile to value "D:\Documenti\Scuola\Laurea magistrale unibs\laurea-unibs-mkfsp\output\2024-08-19T06_36_50.601237\logs\instance05_bucket1.log"
Set parameter TimeLimit to value 350
Set parameter MIPGap to value 0
Gurobi Optimizer version 11.0.2 build v11.0.2rc0 (win64 - Windows 10.0 (19045.2))

CPU model: Intel(R) Core(TM) i5-4670 CPU @ 3.40GHz, instruction set [SSE2|AVX|AVX2]
Thread count: 4 physical cores, 4 logical processors, using up to 4 threads

Optimize a model with 819 rows, 2436 columns and 68054 nonzeros
Model fingerprint: 0xe6c749fc
Variable types: 0 continuous, 2436 integer (2408 binary)
Coefficient statistics:
  Matrix range     [1e+00, 9e+03]
  Objective range  [6e+02, 9e+03]
  Bounds range     [1e+00, 1e+00]
  RHS range        [1e+00, 2e+05]
Found heuristic solution: objective 164950.00000
Presolve removed 0 rows and 28 columns
Presolve time: 0.17s
Presolved: 819 rows, 2408 columns, 67816 nonzeros
Variable types: 0 continuous, 2408 integer (2380 binary)

Root relaxation: objective 1.670300e+05, 430 iterations, 0.01 seconds (0.01 work units)

    Nodes    |    Current Node    |     Objective Bounds      |     Work
 Expl Unexpl |  Obj  Depth IntInf | Incumbent    BestBd   Gap | It/Node Time

H    0     0                    167030.00000 167030.000  0.00%     -    0s
     0     0 167030.000    0  174 167030.000 167030.000  0.00%     -    0s

Explored 1 nodes (430 simplex iterations) in 0.20 seconds (0.17 work units)
Thread count was 4 (of 4 available processors)

Solution count 2: 167030 164950 

Optimal solution found (tolerance 0.00e+00)
Best objective 1.670300000000e+05, best bound 1.670300000000e+05, gap 0.0000%
